20180608 130 0 0 0
20170524 100 0 0 0
20160615 90 0 0 0
20150416 70 2000 0 0
20140514 90 3000 0 0
20130731 70 0 0 0
20120705 80 0 0 0
20110818 80 0 0 0
20100706 80 0 0 0
20090707 130 0 0 0
20080722 160 0 0 0
20070719 120 0 0 0
20061226 549 2150 0 0
20060713 70 0 0 0
20050616 65 0 0 0
